;; unsat

(declare-const x1 sl.list.loc)
(declare-const x2 sl.list.loc)
(declare-const x3 sl.list.loc)
(declare-const x4 sl.list.loc)
(declare-const x5 sl.list.loc)
(declare-const x6 sl.list.loc)
(declare-const x7 sl.list.loc)
(declare-const x8 sl.list.loc)
(declare-const x9 sl.list.loc)
(declare-const x10 sl.list.loc)
(declare-const x11 sl.list.loc)
(declare-const x12 sl.list.loc)
(declare-const x13 sl.list.loc)
(declare-const x14 sl.list.loc)

(assert (sl.sepcon (sl.sepcon (sl.sepcon (sl.sepcon (sl.sepcon (sl.sepcon (sl.sepcon (sl.sepcon (sl.sepcon (sl.sepcon (sl.list.eq sl.list.null sl.list.null)
 (sl.list.neq x8 x10)
)
 (sl.list.neq x1 x5)
)
 (sl.list.neq x3 x8)
)
 (sl.list.neq x3 x6)
)
 (sl.list.neq x3 x12)
)
 (sl.list.neq x3 x5)
)
 (sl.list.neq x7 x10)
)
 (sl.list.neq x2 x4)
)
 (sl.list.neq x5 x10)
)
 (sl.sepcon (sl.sepcon (sl.sepcon (sl.sepcon (sl.sepcon (sl.sepcon (sl.sepcon (sl.sepcon (sl.sepcon (sl.sepcon (sl.sepcon (sl.sepcon (sl.sepcon (sl.list.seg x10 x4)
 (sl.list.seg x4 x2)
)
 (sl.list.seg x8 x5)
)
 (sl.list.seg x8 x7)
)
 (sl.list.seg x14 x13)
)
 (sl.list.seg x12 x13)
)
 (sl.list.seg x12 x3)
)
 (sl.list.seg x9 x7)
)
 (sl.list.seg x9 x3)
)
 (sl.list.seg x7 x3)
)
 (sl.list.seg x7 x1)
)
 (sl.list.seg x7 x11)
)
 (sl.list.seg x3 x4)
)
 (sl.list.seg x11 x8)
)
)
)

